HUN,8,6,974
0,7,2,11,1,3,3,15,5,21,4,8
1,2,0,29,2,5,4,5,5,27,3,7
1,14,0,15,2,30,4,6,3,28,5,11
2,30,1,16,0,14,3,29,5,9,4,8
1,6,0,10,2,10,3,20,5,9,4,28
0,2,1,17,2,23,5,25,4,7,3,21
0,3,1,11,2,30,5,7,4,16,3,4
2,5,1,14,0,9,3,4,5,19,4,4
